% ----DATA VARIABLES----

t=12;%number of attributes
k=8;%max length of the support set
n=17;%number of positive instances
m=17;%number of negative instances
c=3;%number of atMostOne Constraints

% ----OMEGAS----

omegap= [| 0, 1, 0, 0, 0, 1, 1, 0, 1, 1, 0, 0|
 1, 1, 0, 1, 0, 0, 0, 0, 0, 1, 1, 1|
 1, 0, 0, 0, 0, 1, 0, 1, 0, 0, 1, 0|
 1, 0, 1, 1, 1, 0, 0, 1, 0, 0, 0, 1|
 1, 0, 0, 0, 1, 0, 1, 0, 0, 0, 0, 0|
 1, 0, 0, 0, 0, 0, 1, 1, 0, 1, 0, 0|
 0, 1, 1, 0, 0, 0, 1, 1, 1, 0, 1, 0|
 1, 1, 0, 0, 1, 1, 1, 0, 0, 0, 1, 1|
 1, 0, 1, 1, 0, 1, 0, 1, 1, 0, 0, 0|
 0, 1, 1, 0, 1, 0, 0, 0, 1, 1, 1, 0|
 0, 0, 0, 1, 0, 1, 0, 0, 1, 1, 1, 1|
 0, 0, 0, 1, 1, 0, 0, 0, 1, 0, 1, 0|
 1, 0, 0, 1, 1, 0, 1, 1, 0, 1, 1, 0|
 1, 1, 0, 0, 0, 1, 1, 0, 0, 1, 1, 0|
 1, 1, 0, 1, 1, 0, 1, 0, 1, 0, 0, 1|
 0, 1, 0, 0, 1, 0, 0, 0, 0, 1, 1, 1|
 1, 0, 0, 1, 1, 0, 1, 1, 0, 1, 1, 1|];

omegan= [| 1, 0, 1, 0, 1, 0, 0, 0, 1, 1, 0, 1|
 1, 1, 0, 0, 1, 0, 1, 0, 0, 1, 0, 1|
 1, 1, 0, 0, 1, 0, 0, 1, 0, 0, 0, 1|
 1, 0, 1, 0, 0, 1, 1, 0, 1, 1, 0, 1|
 0, 0, 0, 1, 1, 0, 0, 0, 1, 0, 0, 0|
 0, 1, 1, 1, 1, 0, 1, 0, 1, 0, 1, 0|
 1, 0, 1, 1, 1, 0, 0, 0, 0, 0, 1, 1|
 1, 0, 1, 1, 0, 0, 0, 0, 1, 1, 1, 1|
 0, 1, 0, 0, 0, 1, 0, 1, 1, 0, 0, 0|
 0, 0, 1, 1, 0, 0, 0, 0, 0, 1, 1, 1|
 1, 0, 0, 1, 1, 0, 1, 0, 1, 1, 0, 0|
 1, 0, 0, 0, 1, 0, 1, 0, 1, 0, 0, 1|
 0, 1, 0, 0, 1, 1, 0, 1, 1, 0, 0, 1|
 0, 1, 0, 0, 0, 0, 0, 1, 0, 0, 0, 1|
 1, 1, 0, 1, 1, 0, 1, 1, 1, 1, 0, 0|
 0, 1, 0, 0, 0, 1, 0, 0, 0, 1, 1, 0|
 0, 1, 1, 1, 0, 0, 1, 0, 0, 0, 0, 0|];

% ----CONSTRAINS----

atMostOne=[{3, 2, 8}, {5, 11, 10}, {6, 6, 1, 3}];